\ENCODING=ISO-8859-1
\Problem name: LP/crossvalidation_paper/er_n=102_m=526_p=0.10_SET2_setparam=100.00_alpha=0.75_1

Maximize
 obj1: 100 x0 + 100 x1 + 100 x2 + 100 x3 + 100 x4 + 100 x5 + 100 x6 + 100 x7
       + 100 x8 + 100 x9 + 100 x10 + 100 x11 + 100 x12 + 100 x13 + 100 x14
       + 100 x15 + 100 x16 + 100 x17 + 100 x18 + 100 x19 + 100 x20 + 100 x21
       + 100 x22 + 100 x23 + 100 x24 + 100 x25 + 100 x26 + 100 x27 + 100 x28
       + 100 x29 + 100 x30 + 100 x31 + 100 x32 + 100 x33 + 100 x34 + 100 x35
       + 100 x36 + 100 x37 + 100 x38 + 100 x39 + 100 x40 + 100 x41 + 100 x42
       + 100 x43 + 100 x44 + 100 x45 + 100 x46 + 100 x47 + 100 x48 + 100 x49
       + 100 x50 + 100 x51 + 100 x52 + 100 x53 + 100 x54 + 100 x55 + 100 x56
       + 100 x57 + 100 x58 + 100 x59 + 100 x60 + 100 x61 + 100 x62 + 100 x63
       + 100 x64 + 100 x65 + 100 x66 + 100 x67 + 100 x68 + 100 x69 + 100 x70
       + 100 x71 + 100 x72 + 100 x73 + 100 x74 + 100 x75 + 100 x76 + 100 x77
       + 100 x78 + 100 x79 + 100 x80 + 100 x81 + 100 x82 + 100 x83 + 100 x84
       + 100 x85 + 100 x86 + 100 x87 + 100 x88 + 100 x89 + 100 x90 + 100 x91
       + 100 x92 + 100 x93 + 100 x94 + 100 x95 + 100 x96 + 100 x97 + 100 x98
       + 100 x99 + 100 x100 + 100 x101 - y24_92 - y82_101 - y32_44 - y63_76
       - y35_41 - y5_74 - y43_63 - y6_98 - y12_17 - y7_98 - y80_94 - y22_48
       - y20_32 - y21_37 - y7_22 - y27_93 - y38_73 - y31_51 - y63_83 - y29_95
       - y13_51 - y18_62 - y6_101 - y56_82 - y0_14 - y45_71 - y0_36 - y12_90
       - y2_64 - y8_51 - y28_68 - y6_92 - y51_100 - y21_99 - y39_57 - y4_11
       - y29_55 - y24_87 - y25_79 - y18_22 - y74_75 - y3_77 - y17_43 - y18_48
       - y89_91 - y43_56 - y44_67 - y1_25 - y58_90 - y18_93 - y1_51 - y35_90
       - y32_72 - y11_70 - y61_80 - y6_18 - y2_82 - y15_84 - y11_92 - y29_42
       - y29_68 - y18_43 - y19_93 - y20_85 - y0_9 - y1_52 - y43_100 - y12_71
       - y60_73 - y15_93 - y16_24 - y6_47 - y7_46 - y40_75 - y15_97 - y28_79
       - y5_91 - y51_97 - y28_101 - y46_80 - y70_87 - y25_34 - y49_100 - y0_92
       - y40_44 - y1_80 - y31_58 - y38_88 - y53_80 - y7_61 - y27_96 - y17_74
       - y44_70 - y46_91 - y53_100 - y22_75 - y2_5 - y34_101 - y44_92 - y25_43
       - y22_28 - y75_77 - y4_71 - y12_56 - y43_58 - y12_22 - y89_101 - y60_86
       - y66_97 - y14_78 - y3_39 - y37_94 - y63_72 - y29_40 - y76_96 - y33_45
       - y73_86 - y28_84 - y53_76 - y15_26 - y7_64 - y56_79 - y24_56 - y20_44
       - y12_65 - y70_82 - y71_96 - y87_93 - y34_75 - y30_62 - y3_67 - y76_83
       - y24_25 - y6_89 - y17_87 - y67_93 - y31_99 - y44_73 - y41_89 - y24_63
       - y46_86 - y21_64 - y59_80 - y7_11 - y81_101 - y52_86 - y50_66 - y48_94
       - y38_94 - y40_52 - y49_86 - y7_63 - y29_78 - y66_80 - y30_90 - y58_95
       - y32_95 - y2_61 - y26_46 - y21_29 - y37_83 - y63_77 - y35_38 - y6_49
       - y7_52 - y50_87 - y18_44 - y14_30 - y20_74 - y76_95 - y55_79 - y44_85
       - y71_79 - y45_79 - y5_25 - y1_41 - y4_34 - y34_78 - y48_76 - y55_57
       - y26_66 - y18_39 - y74_88 - y48_49 - y58_97 - y24_58 - y26_48 - y24_32
       - y62_77 - y34_73 - y15_71 - y50_73 - y63_89 - y35_58 - y9_51 - y65_89
       - y18_75 - y19_50 - y28_31 - y25_38 - y33_61 - y31_76 - y24_98 - y38_54
       - y0_27 - y53_96 - y56_69 - y89_96 - y69_96 - y66_98 - y29_49 - y27_33
       - y86_91 - y15_85 - y16_32 - y29_69 - y19_90 - y6_99 - y22_70 - y43_79
       - y41_83 - y23_94 - y26_55 - y53_61 - y57_58 - y34_76 - y39_84 - y4_74
       - y73_90 - y16_61 - y75_92 - y49_88 - y28_100 - y47_67 - y32_69 - y24_34
       - y9_69 - y1_32 - y72_101 - y2_39 - y32_59 - y12_91 - y8_52 - y48_91
       - y27_75 - y64_87 - y65_95 - y77_87 - y38_61 - y64_77 - y56_90 - y83_98
       - y46_90 - y16_89 - y66_79 - y85_88 - y92_101 - y3_25 - y59_84 - y10_68
       - y37_76 - y80_99 - y97_100 - y61_86 - y52_82 - y8_59 - y0_72 - y7_29
       - y79_90 - y7_59 - y37_39 - y40_94 - y15_18 - y11_18 - y29_100 - y14_61
       - y12_21 - y1_24 - y10_101 - y16_80 - y44_90 - y3_30 - y63_99 - y6_53
       - y39_89 - y1_69 - y52_71 - y0_101 - y50_83 - y18_40 - y42_61 - y16_56
       - y30_65 - y64_91 - y65_67 - y0_20 - y42_71 - y55_75 - y69_77 - y7_95
       - y47_68 - y71_75 - y19_40 - y13_98 - y10_80 - y36_78 - y32_38 - y22_41
       - y49_94 - y55_64 - y51_96 - y46_81 - y8_65 - y14_91 - y10_91 - y21_43
       - y37_65 - y38_71 - y30_32 - y51_93 - y17_29 - y27_99 - y8_98 - y19_80
       - y26_29 - y41_67 - y53_99 - y32_94 - y19_28 - y50_98 - y29_52 - y27_44
       - y30_43 - y38_80 - y47_83 - y43_74 - y20_56 - y21_61 - y33_44 - y16_36
       - y38_75 - y39_91 - y36_47 - y18_38 - y74_91 - y16_58 - y36_53 - y19_94
       - y92_95 - y58_96 - y55_99 - y25_52 - y84_100 - y75_100 - y72_98 - y2_40
       - y34_72 - y3_53 - y33_37 - y40_78 - y65_90 - y21_101 - y28_96 - y11_24
       - y28_30 - y35_77 - y0_57 - y14_89 - y20_52 - y9_73 - y31_39 - y63_71
       - y17_53 - y41_48 - y42_55 - y11_17 - y26_27 - y18_69 - y58_70 - y28_51
Subject To
 c1:   x0 + x9 - y0_9 <= 1
 c2:   x0 + x10 <= 1
 c3:   x0 + x14 - y0_14 <= 1
 c4:   x0 + x20 - y0_20 <= 1
 c5:   x0 + x21 <= 1
 c6:   x0 + x27 - y0_27 <= 1
 c7:   x0 + x36 - y0_36 <= 1
 c8:   x0 + x57 - y0_57 <= 1
 c9:   x0 + x72 - y0_72 <= 1
 c10:  x0 + x73 <= 1
 c11:  x0 + x92 - y0_92 <= 1
 c12:  x0 + x101 - y0_101 <= 1
 c13:  x1 + x13 <= 1
 c14:  x1 + x24 - y1_24 <= 1
 c15:  x1 + x25 - y1_25 <= 1
 c16:  x1 + x26 <= 1
 c17:  x1 + x32 - y1_32 <= 1
 c18:  x1 + x41 - y1_41 <= 1
 c19:  x1 + x51 - y1_51 <= 1
 c20:  x1 + x52 - y1_52 <= 1
 c21:  x1 + x69 - y1_69 <= 1
 c22:  x1 + x80 - y1_80 <= 1
 c23:  x1 + x82 <= 1
 c24:  x2 + x5 - y2_5 <= 1
 c25:  x2 + x22 <= 1
 c26:  x2 + x39 - y2_39 <= 1
 c27:  x2 + x40 - y2_40 <= 1
 c28:  x2 + x50 <= 1
 c29:  x2 + x59 <= 1
 c30:  x2 + x61 - y2_61 <= 1
 c31:  x2 + x64 - y2_64 <= 1
 c32:  x2 + x82 - y2_82 <= 1
 c33:  x2 + x83 <= 1
 c34:  x2 + x89 <= 1
 c35:  x3 + x6 <= 1
 c36:  x3 + x25 - y3_25 <= 1
 c37:  x3 + x27 <= 1
 c38:  x3 + x29 <= 1
 c39:  x3 + x30 - y3_30 <= 1
 c40:  x3 + x39 - y3_39 <= 1
 c41:  x3 + x53 - y3_53 <= 1
 c42:  x3 + x67 - y3_67 <= 1
 c43:  x3 + x77 - y3_77 <= 1
 c44:  x3 + x81 <= 1
 c45:  x3 + x91 <= 1
 c46:  x4 + x11 - y4_11 <= 1
 c47:  x4 + x12 <= 1
 c48:  x4 + x34 - y4_34 <= 1
 c49:  x4 + x41 <= 1
 c50:  x4 + x71 - y4_71 <= 1
 c51:  x4 + x74 - y4_74 <= 1
 c52:  x5 + x14 <= 1
 c53:  x5 + x25 - y5_25 <= 1
 c54:  x5 + x42 <= 1
 c55:  x5 + x74 - y5_74 <= 1
 c56:  x5 + x80 <= 1
 c57:  x5 + x91 - y5_91 <= 1
 c58:  x6 + x18 - y6_18 <= 1
 c59:  x6 + x47 - y6_47 <= 1
 c60:  x6 + x49 - y6_49 <= 1
 c61:  x6 + x53 - y6_53 <= 1
 c62:  x6 + x62 <= 1
 c63:  x6 + x77 <= 1
 c64:  x6 + x89 - y6_89 <= 1
 c65:  x6 + x92 - y6_92 <= 1
 c66:  x6 + x98 - y6_98 <= 1
 c67:  x6 + x99 - y6_99 <= 1
 c68:  x6 + x101 - y6_101 <= 1
 c69:  x7 + x10 <= 1
 c70:  x7 + x11 - y7_11 <= 1
 c71:  x7 + x22 - y7_22 <= 1
 c72:  x7 + x29 - y7_29 <= 1
 c73:  x7 + x46 - y7_46 <= 1
 c74:  x7 + x47 <= 1
 c75:  x7 + x52 - y7_52 <= 1
 c76:  x7 + x59 - y7_59 <= 1
 c77:  x7 + x61 - y7_61 <= 1
 c78:  x7 + x63 - y7_63 <= 1
 c79:  x7 + x64 - y7_64 <= 1
 c80:  x7 + x95 - y7_95 <= 1
 c81:  x7 + x98 - y7_98 <= 1
 c82:  x8 + x19 <= 1
 c83:  x8 + x51 - y8_51 <= 1
 c84:  x8 + x52 - y8_52 <= 1
 c85:  x8 + x59 - y8_59 <= 1
 c86:  x8 + x60 <= 1
 c87:  x8 + x65 - y8_65 <= 1
 c88:  x8 + x92 <= 1
 c89:  x8 + x98 - y8_98 <= 1
 c90:  x9 + x51 - y9_51 <= 1
 c91:  x9 + x69 - y9_69 <= 1
 c92:  x9 + x73 - y9_73 <= 1
 c93:  x9 + x80 <= 1
 c94:  x9 + x100 <= 1
 c95:  x10 + x33 <= 1
 c96:  x10 + x68 - y10_68 <= 1
 c97:  x10 + x80 - y10_80 <= 1
 c98:  x10 + x90 <= 1
 c99:  x10 + x91 - y10_91 <= 1
 c100: x10 + x94 <= 1
 c101: x10 + x101 - y10_101 <= 1
 c102: x11 + x17 - y11_17 <= 1
 c103: x11 + x18 - y11_18 <= 1
 c104: x11 + x23 <= 1
 c105: x11 + x24 - y11_24 <= 1
 c106: x11 + x51 <= 1
 c107: x11 + x70 - y11_70 <= 1
 c108: x11 + x92 - y11_92 <= 1
 c109: x12 + x17 - y12_17 <= 1
 c110: x12 + x19 <= 1
 c111: x12 + x21 - y12_21 <= 1
 c112: x12 + x22 - y12_22 <= 1
 c113: x12 + x47 <= 1
 c114: x12 + x56 - y12_56 <= 1
 c115: x12 + x65 - y12_65 <= 1
 c116: x12 + x71 - y12_71 <= 1
 c117: x12 + x90 - y12_90 <= 1
 c118: x12 + x91 - y12_91 <= 1
 c119: x12 + x101 <= 1
 c120: x13 + x20 <= 1
 c121: x13 + x51 - y13_51 <= 1
 c122: x13 + x96 <= 1
 c123: x13 + x98 - y13_98 <= 1
 c124: x14 + x18 <= 1
 c125: x14 + x30 - y14_30 <= 1
 c126: x14 + x40 <= 1
 c127: x14 + x61 - y14_61 <= 1
 c128: x14 + x78 - y14_78 <= 1
 c129: x14 + x83 <= 1
 c130: x14 + x89 - y14_89 <= 1
 c131: x14 + x91 - y14_91 <= 1
 c132: x15 + x18 - y15_18 <= 1
 c133: x15 + x26 - y15_26 <= 1
 c134: x15 + x58 <= 1
 c135: x15 + x71 - y15_71 <= 1
 c136: x15 + x84 - y15_84 <= 1
 c137: x15 + x85 - y15_85 <= 1
 c138: x15 + x93 - y15_93 <= 1
 c139: x15 + x97 - y15_97 <= 1
 c140: x16 + x24 - y16_24 <= 1
 c141: x16 + x32 - y16_32 <= 1
 c142: x16 + x36 - y16_36 <= 1
 c143: x16 + x49 <= 1
 c144: x16 + x56 - y16_56 <= 1
 c145: x16 + x58 - y16_58 <= 1
 c146: x16 + x61 - y16_61 <= 1
 c147: x16 + x63 <= 1
 c148: x16 + x65 <= 1
 c149: x16 + x80 - y16_80 <= 1
 c150: x16 + x81 <= 1
 c151: x16 + x89 - y16_89 <= 1
 c152: x17 + x29 - y17_29 <= 1
 c153: x17 + x43 - y17_43 <= 1
 c154: x17 + x47 <= 1
 c155: x17 + x53 - y17_53 <= 1
 c156: x17 + x74 - y17_74 <= 1
 c157: x17 + x87 - y17_87 <= 1
 c158: x17 + x92 <= 1
 c159: x18 + x20 <= 1
 c160: x18 + x22 - y18_22 <= 1
 c161: x18 + x38 - y18_38 <= 1
 c162: x18 + x39 - y18_39 <= 1
 c163: x18 + x40 - y18_40 <= 1
 c164: x18 + x43 - y18_43 <= 1
 c165: x18 + x44 - y18_44 <= 1
 c166: x18 + x47 <= 1
 c167: x18 + x48 - y18_48 <= 1
 c168: x18 + x62 - y18_62 <= 1
 c169: x18 + x69 - y18_69 <= 1
 c170: x18 + x75 - y18_75 <= 1
 c171: x18 + x93 - y18_93 <= 1
 c172: x19 + x28 - y19_28 <= 1
 c173: x19 + x40 - y19_40 <= 1
 c174: x19 + x50 - y19_50 <= 1
 c175: x19 + x63 <= 1
 c176: x19 + x80 - y19_80 <= 1
 c177: x19 + x90 - y19_90 <= 1
 c178: x19 + x93 - y19_93 <= 1
 c179: x19 + x94 - y19_94 <= 1
 c180: x20 + x32 - y20_32 <= 1
 c181: x20 + x39 <= 1
 c182: x20 + x44 - y20_44 <= 1
 c183: x20 + x52 - y20_52 <= 1
 c184: x20 + x55 <= 1
 c185: x20 + x56 - y20_56 <= 1
 c186: x20 + x60 <= 1
 c187: x20 + x70 <= 1
 c188: x20 + x71 <= 1
 c189: x20 + x74 - y20_74 <= 1
 c190: x20 + x85 - y20_85 <= 1
 c191: x21 + x29 - y21_29 <= 1
 c192: x21 + x37 - y21_37 <= 1
 c193: x21 + x43 - y21_43 <= 1
 c194: x21 + x50 <= 1
 c195: x21 + x61 - y21_61 <= 1
 c196: x21 + x64 - y21_64 <= 1
 c197: x21 + x88 <= 1
 c198: x21 + x99 - y21_99 <= 1
 c199: x21 + x101 - y21_101 <= 1
 c200: x22 + x28 - y22_28 <= 1
 c201: x22 + x41 - y22_41 <= 1
 c202: x22 + x48 - y22_48 <= 1
 c203: x22 + x70 - y22_70 <= 1
 c204: x22 + x75 - y22_75 <= 1
 c205: x23 + x53 <= 1
 c206: x23 + x60 <= 1
 c207: x23 + x94 - y23_94 <= 1
 c208: x24 + x25 - y24_25 <= 1
 c209: x24 + x32 - y24_32 <= 1
 c210: x24 + x34 - y24_34 <= 1
 c211: x24 + x56 - y24_56 <= 1
 c212: x24 + x58 - y24_58 <= 1
 c213: x24 + x63 - y24_63 <= 1
 c214: x24 + x66 <= 1
 c215: x24 + x76 <= 1
 c216: x24 + x87 - y24_87 <= 1
 c217: x24 + x91 <= 1
 c218: x24 + x92 - y24_92 <= 1
 c219: x24 + x98 - y24_98 <= 1
 c220: x25 + x34 - y25_34 <= 1
 c221: x25 + x38 - y25_38 <= 1
 c222: x25 + x43 - y25_43 <= 1
 c223: x25 + x52 - y25_52 <= 1
 c224: x25 + x79 - y25_79 <= 1
 c225: x26 + x27 - y26_27 <= 1
 c226: x26 + x29 - y26_29 <= 1
 c227: x26 + x46 - y26_46 <= 1
 c228: x26 + x48 - y26_48 <= 1
 c229: x26 + x55 - y26_55 <= 1
 c230: x26 + x66 - y26_66 <= 1
 c231: x26 + x74 <= 1
 c232: x26 + x98 <= 1
 c233: x27 + x33 - y27_33 <= 1
 c234: x27 + x44 - y27_44 <= 1
 c235: x27 + x75 - y27_75 <= 1
 c236: x27 + x85 <= 1
 c237: x27 + x93 - y27_93 <= 1
 c238: x27 + x96 - y27_96 <= 1
 c239: x27 + x99 - y27_99 <= 1
 c240: x28 + x29 <= 1
 c241: x28 + x30 - y28_30 <= 1
 c242: x28 + x31 - y28_31 <= 1
 c243: x28 + x51 - y28_51 <= 1
 c244: x28 + x68 - y28_68 <= 1
 c245: x28 + x78 <= 1
 c246: x28 + x79 - y28_79 <= 1
 c247: x28 + x84 - y28_84 <= 1
 c248: x28 + x96 - y28_96 <= 1
 c249: x28 + x97 <= 1
 c250: x28 + x100 - y28_100 <= 1
 c251: x28 + x101 - y28_101 <= 1
 c252: x29 + x40 - y29_40 <= 1
 c253: x29 + x42 - y29_42 <= 1
 c254: x29 + x47 <= 1
 c255: x29 + x49 - y29_49 <= 1
 c256: x29 + x52 - y29_52 <= 1
 c257: x29 + x55 - y29_55 <= 1
 c258: x29 + x68 - y29_68 <= 1
 c259: x29 + x69 - y29_69 <= 1
 c260: x29 + x78 - y29_78 <= 1
 c261: x29 + x84 <= 1
 c262: x29 + x89 <= 1
 c263: x29 + x95 - y29_95 <= 1
 c264: x29 + x97 <= 1
 c265: x29 + x100 - y29_100 <= 1
 c266: x30 + x32 - y30_32 <= 1
 c267: x30 + x43 - y30_43 <= 1
 c268: x30 + x62 - y30_62 <= 1
 c269: x30 + x65 - y30_65 <= 1
 c270: x30 + x89 <= 1
 c271: x30 + x90 - y30_90 <= 1
 c272: x31 + x37 <= 1
 c273: x31 + x38 <= 1
 c274: x31 + x39 - y31_39 <= 1
 c275: x31 + x44 <= 1
 c276: x31 + x51 - y31_51 <= 1
 c277: x31 + x58 - y31_58 <= 1
 c278: x31 + x76 - y31_76 <= 1
 c279: x31 + x99 - y31_99 <= 1
 c280: x32 + x38 - y32_38 <= 1
 c281: x32 + x44 - y32_44 <= 1
 c282: x32 + x48 <= 1
 c283: x32 + x49 <= 1
 c284: x32 + x59 - y32_59 <= 1
 c285: x32 + x69 - y32_69 <= 1
 c286: x32 + x72 - y32_72 <= 1
 c287: x32 + x94 - y32_94 <= 1
 c288: x32 + x95 - y32_95 <= 1
 c289: x33 + x37 - y33_37 <= 1
 c290: x33 + x44 - y33_44 <= 1
 c291: x33 + x45 - y33_45 <= 1
 c292: x33 + x61 - y33_61 <= 1
 c293: x33 + x77 <= 1
 c294: x33 + x86 <= 1
 c295: x33 + x93 <= 1
 c296: x34 + x64 <= 1
 c297: x34 + x72 - y34_72 <= 1
 c298: x34 + x73 - y34_73 <= 1
 c299: x34 + x75 - y34_75 <= 1
 c300: x34 + x76 - y34_76 <= 1
 c301: x34 + x78 - y34_78 <= 1
 c302: x34 + x101 - y34_101 <= 1
 c303: x35 + x36 <= 1
 c304: x35 + x38 - y35_38 <= 1
 c305: x35 + x39 <= 1
 c306: x35 + x41 - y35_41 <= 1
 c307: x35 + x58 - y35_58 <= 1
 c308: x35 + x77 - y35_77 <= 1
 c309: x35 + x90 - y35_90 <= 1
 c310: x36 + x46 <= 1
 c311: x36 + x47 - y36_47 <= 1
 c312: x36 + x53 - y36_53 <= 1
 c313: x36 + x71 <= 1
 c314: x36 + x78 - y36_78 <= 1
 c315: x36 + x88 <= 1
 c316: x37 + x39 - y37_39 <= 1
 c317: x37 + x65 - y37_65 <= 1
 c318: x37 + x76 - y37_76 <= 1
 c319: x37 + x82 <= 1
 c320: x37 + x83 - y37_83 <= 1
 c321: x37 + x94 - y37_94 <= 1
 c322: x38 + x45 <= 1
 c323: x38 + x54 - y38_54 <= 1
 c324: x38 + x61 - y38_61 <= 1
 c325: x38 + x67 <= 1
 c326: x38 + x71 - y38_71 <= 1
 c327: x38 + x73 - y38_73 <= 1
 c328: x38 + x75 - y38_75 <= 1
 c329: x38 + x77 <= 1
 c330: x38 + x80 - y38_80 <= 1
 c331: x38 + x88 - y38_88 <= 1
 c332: x38 + x89 <= 1
 c333: x38 + x94 - y38_94 <= 1
 c334: x38 + x99 <= 1
 c335: x39 + x57 - y39_57 <= 1
 c336: x39 + x84 - y39_84 <= 1
 c337: x39 + x89 - y39_89 <= 1
 c338: x39 + x91 - y39_91 <= 1
 c339: x40 + x44 - y40_44 <= 1
 c340: x40 + x52 - y40_52 <= 1
 c341: x40 + x60 <= 1
 c342: x40 + x75 - y40_75 <= 1
 c343: x40 + x78 - y40_78 <= 1
 c344: x40 + x86 <= 1
 c345: x40 + x94 - y40_94 <= 1
 c346: x41 + x48 - y41_48 <= 1
 c347: x41 + x67 - y41_67 <= 1
 c348: x41 + x83 - y41_83 <= 1
 c349: x41 + x89 - y41_89 <= 1
 c350: x41 + x95 <= 1
 c351: x42 + x45 <= 1
 c352: x42 + x55 - y42_55 <= 1
 c353: x42 + x61 - y42_61 <= 1
 c354: x42 + x71 - y42_71 <= 1
 c355: x42 + x75 <= 1
 c356: x42 + x97 <= 1
 c357: x43 + x56 - y43_56 <= 1
 c358: x43 + x58 - y43_58 <= 1
 c359: x43 + x63 - y43_63 <= 1
 c360: x43 + x74 - y43_74 <= 1
 c361: x43 + x75 <= 1
 c362: x43 + x79 - y43_79 <= 1
 c363: x43 + x87 <= 1
 c364: x43 + x100 - y43_100 <= 1
 c365: x44 + x67 - y44_67 <= 1
 c366: x44 + x70 - y44_70 <= 1
 c367: x44 + x73 - y44_73 <= 1
 c368: x44 + x85 - y44_85 <= 1
 c369: x44 + x90 - y44_90 <= 1
 c370: x44 + x92 - y44_92 <= 1
 c371: x45 + x48 <= 1
 c372: x45 + x71 - y45_71 <= 1
 c373: x45 + x79 - y45_79 <= 1
 c374: x45 + x95 <= 1
 c375: x46 + x50 <= 1
 c376: x46 + x61 <= 1
 c377: x46 + x80 - y46_80 <= 1
 c378: x46 + x81 - y46_81 <= 1
 c379: x46 + x86 - y46_86 <= 1
 c380: x46 + x90 - y46_90 <= 1
 c381: x46 + x91 - y46_91 <= 1
 c382: x46 + x93 <= 1
 c383: x47 + x67 - y47_67 <= 1
 c384: x47 + x68 - y47_68 <= 1
 c385: x47 + x83 - y47_83 <= 1
 c386: x48 + x49 - y48_49 <= 1
 c387: x48 + x76 - y48_76 <= 1
 c388: x48 + x91 - y48_91 <= 1
 c389: x48 + x94 - y48_94 <= 1
 c390: x49 + x59 <= 1
 c391: x49 + x64 <= 1
 c392: x49 + x80 <= 1
 c393: x49 + x86 - y49_86 <= 1
 c394: x49 + x88 - y49_88 <= 1
 c395: x49 + x94 - y49_94 <= 1
 c396: x49 + x100 - y49_100 <= 1
 c397: x50 + x58 <= 1
 c398: x50 + x66 - y50_66 <= 1
 c399: x50 + x73 - y50_73 <= 1
 c400: x50 + x83 - y50_83 <= 1
 c401: x50 + x87 - y50_87 <= 1
 c402: x50 + x98 - y50_98 <= 1
 c403: x51 + x89 <= 1
 c404: x51 + x93 - y51_93 <= 1
 c405: x51 + x94 <= 1
 c406: x51 + x95 <= 1
 c407: x51 + x96 - y51_96 <= 1
 c408: x51 + x97 - y51_97 <= 1
 c409: x51 + x100 - y51_100 <= 1
 c410: x52 + x65 <= 1
 c411: x52 + x71 - y52_71 <= 1
 c412: x52 + x82 - y52_82 <= 1
 c413: x52 + x86 - y52_86 <= 1
 c414: x53 + x61 - y53_61 <= 1
 c415: x53 + x76 - y53_76 <= 1
 c416: x53 + x80 - y53_80 <= 1
 c417: x53 + x96 - y53_96 <= 1
 c418: x53 + x99 - y53_99 <= 1
 c419: x53 + x100 - y53_100 <= 1
 c420: x55 + x57 - y55_57 <= 1
 c421: x55 + x64 - y55_64 <= 1
 c422: x55 + x75 - y55_75 <= 1
 c423: x55 + x79 - y55_79 <= 1
 c424: x55 + x99 - y55_99 <= 1
 c425: x56 + x60 <= 1
 c426: x56 + x69 - y56_69 <= 1
 c427: x56 + x77 <= 1
 c428: x56 + x79 - y56_79 <= 1
 c429: x56 + x82 - y56_82 <= 1
 c430: x56 + x90 - y56_90 <= 1
 c431: x57 + x58 - y57_58 <= 1
 c432: x57 + x71 <= 1
 c433: x58 + x70 - y58_70 <= 1
 c434: x58 + x74 <= 1
 c435: x58 + x90 - y58_90 <= 1
 c436: x58 + x95 - y58_95 <= 1
 c437: x58 + x96 - y58_96 <= 1
 c438: x58 + x97 - y58_97 <= 1
 c439: x59 + x80 - y59_80 <= 1
 c440: x59 + x84 - y59_84 <= 1
 c441: x60 + x63 <= 1
 c442: x60 + x66 <= 1
 c443: x60 + x73 - y60_73 <= 1
 c444: x60 + x78 <= 1
 c445: x60 + x86 - y60_86 <= 1
 c446: x61 + x80 - y61_80 <= 1
 c447: x61 + x84 <= 1
 c448: x61 + x86 - y61_86 <= 1
 c449: x61 + x89 <= 1
 c450: x61 + x94 <= 1
 c451: x62 + x70 <= 1
 c452: x62 + x77 - y62_77 <= 1
 c453: x63 + x64 <= 1
 c454: x63 + x71 - y63_71 <= 1
 c455: x63 + x72 - y63_72 <= 1
 c456: x63 + x76 - y63_76 <= 1
 c457: x63 + x77 - y63_77 <= 1
 c458: x63 + x83 - y63_83 <= 1
 c459: x63 + x89 - y63_89 <= 1
 c460: x63 + x95 <= 1
 c461: x63 + x99 - y63_99 <= 1
 c462: x64 + x77 - y64_77 <= 1
 c463: x64 + x87 - y64_87 <= 1
 c464: x64 + x91 - y64_91 <= 1
 c465: x64 + x99 <= 1
 c466: x65 + x67 - y65_67 <= 1
 c467: x65 + x89 - y65_89 <= 1
 c468: x65 + x90 - y65_90 <= 1
 c469: x65 + x94 <= 1
 c470: x65 + x95 - y65_95 <= 1
 c471: x66 + x79 - y66_79 <= 1
 c472: x66 + x80 - y66_80 <= 1
 c473: x66 + x97 - y66_97 <= 1
 c474: x66 + x98 - y66_98 <= 1
 c475: x67 + x93 - y67_93 <= 1
 c476: x68 + x78 <= 1
 c477: x68 + x86 <= 1
 c478: x69 + x77 - y69_77 <= 1
 c479: x69 + x78 <= 1
 c480: x69 + x80 <= 1
 c481: x69 + x96 - y69_96 <= 1
 c482: x70 + x82 - y70_82 <= 1
 c483: x70 + x87 - y70_87 <= 1
 c484: x71 + x75 - y71_75 <= 1
 c485: x71 + x79 - y71_79 <= 1
 c486: x71 + x86 <= 1
 c487: x71 + x96 - y71_96 <= 1
 c488: x72 + x92 <= 1
 c489: x72 + x95 <= 1
 c490: x72 + x98 - y72_98 <= 1
 c491: x72 + x101 - y72_101 <= 1
 c492: x73 + x86 - y73_86 <= 1
 c493: x73 + x90 - y73_90 <= 1
 c494: x74 + x75 - y74_75 <= 1
 c495: x74 + x88 - y74_88 <= 1
 c496: x74 + x91 - y74_91 <= 1
 c497: x75 + x77 - y75_77 <= 1
 c498: x75 + x92 - y75_92 <= 1
 c499: x75 + x99 <= 1
 c500: x75 + x100 - y75_100 <= 1
 c501: x76 + x83 - y76_83 <= 1
 c502: x76 + x91 <= 1
 c503: x76 + x95 - y76_95 <= 1
 c504: x76 + x96 - y76_96 <= 1
 c505: x77 + x87 - y77_87 <= 1
 c506: x79 + x90 - y79_90 <= 1
 c507: x80 + x94 - y80_94 <= 1
 c508: x80 + x99 - y80_99 <= 1
 c509: x81 + x101 - y81_101 <= 1
 c510: x82 + x101 - y82_101 <= 1
 c511: x83 + x98 - y83_98 <= 1
 c512: x84 + x91 <= 1
 c513: x84 + x100 - y84_100 <= 1
 c514: x85 + x88 - y85_88 <= 1
 c515: x85 + x101 <= 1
 c516: x86 + x91 - y86_91 <= 1
 c517: x87 + x93 - y87_93 <= 1
 c518: x89 + x91 - y89_91 <= 1
 c519: x89 + x96 - y89_96 <= 1
 c520: x89 + x101 - y89_101 <= 1
 c521: x90 + x91 <= 1
 c522: x92 + x95 - y92_95 <= 1
 c523: x92 + x101 - y92_101 <= 1
 c524: x94 + x98 <= 1
 c525: x97 + x100 - y97_100 <= 1
 c526: x99 + x100 <= 1
Bounds
 0 <= x0 <= 1
 0 <= x1 <= 1
 0 <= x2 <= 1
 0 <= x3 <= 1
 0 <= x4 <= 1
 0 <= x5 <= 1
 0 <= x6 <= 1
 0 <= x7 <= 1
 0 <= x8 <= 1
 0 <= x9 <= 1
 0 <= x10 <= 1
 0 <= x11 <= 1
 0 <= x12 <= 1
 0 <= x13 <= 1
 0 <= x14 <= 1
 0 <= x15 <= 1
 0 <= x16 <= 1
 0 <= x17 <= 1
 0 <= x18 <= 1
 0 <= x19 <= 1
 0 <= x20 <= 1
 0 <= x21 <= 1
 0 <= x22 <= 1
 0 <= x23 <= 1
 0 <= x24 <= 1
 0 <= x25 <= 1
 0 <= x26 <= 1
 0 <= x27 <= 1
 0 <= x28 <= 1
 0 <= x29 <= 1
 0 <= x30 <= 1
 0 <= x31 <= 1
 0 <= x32 <= 1
 0 <= x33 <= 1
 0 <= x34 <= 1
 0 <= x35 <= 1
 0 <= x36 <= 1
 0 <= x37 <= 1
 0 <= x38 <= 1
 0 <= x39 <= 1
 0 <= x40 <= 1
 0 <= x41 <= 1
 0 <= x42 <= 1
 0 <= x43 <= 1
 0 <= x44 <= 1
 0 <= x45 <= 1
 0 <= x46 <= 1
 0 <= x47 <= 1
 0 <= x48 <= 1
 0 <= x49 <= 1
 0 <= x50 <= 1
 0 <= x51 <= 1
 0 <= x52 <= 1
 0 <= x53 <= 1
 0 <= x54 <= 1
 0 <= x55 <= 1
 0 <= x56 <= 1
 0 <= x57 <= 1
 0 <= x58 <= 1
 0 <= x59 <= 1
 0 <= x60 <= 1
 0 <= x61 <= 1
 0 <= x62 <= 1
 0 <= x63 <= 1
 0 <= x64 <= 1
 0 <= x65 <= 1
 0 <= x66 <= 1
 0 <= x67 <= 1
 0 <= x68 <= 1
 0 <= x69 <= 1
 0 <= x70 <= 1
 0 <= x71 <= 1
 0 <= x72 <= 1
 0 <= x73 <= 1
 0 <= x74 <= 1
 0 <= x75 <= 1
 0 <= x76 <= 1
 0 <= x77 <= 1
 0 <= x78 <= 1
 0 <= x79 <= 1
 0 <= x80 <= 1
 0 <= x81 <= 1
 0 <= x82 <= 1
 0 <= x83 <= 1
 0 <= x84 <= 1
 0 <= x85 <= 1
 0 <= x86 <= 1
 0 <= x87 <= 1
 0 <= x88 <= 1
 0 <= x89 <= 1
 0 <= x90 <= 1
 0 <= x91 <= 1
 0 <= x92 <= 1
 0 <= x93 <= 1
 0 <= x94 <= 1
 0 <= x95 <= 1
 0 <= x96 <= 1
 0 <= x97 <= 1
 0 <= x98 <= 1
 0 <= x99 <= 1
 0 <= x100 <= 1
 0 <= x101 <= 1
 0 <= y24_92 <= 1
 0 <= y82_101 <= 1
 0 <= y32_44 <= 1
 0 <= y63_76 <= 1
 0 <= y35_41 <= 1
 0 <= y5_74 <= 1
 0 <= y43_63 <= 1
 0 <= y6_98 <= 1
 0 <= y12_17 <= 1
 0 <= y7_98 <= 1
 0 <= y80_94 <= 1
 0 <= y22_48 <= 1
 0 <= y20_32 <= 1
 0 <= y21_37 <= 1
 0 <= y7_22 <= 1
 0 <= y27_93 <= 1
 0 <= y38_73 <= 1
 0 <= y31_51 <= 1
 0 <= y63_83 <= 1
 0 <= y29_95 <= 1
 0 <= y13_51 <= 1
 0 <= y18_62 <= 1
 0 <= y6_101 <= 1
 0 <= y56_82 <= 1
 0 <= y0_14 <= 1
 0 <= y45_71 <= 1
 0 <= y0_36 <= 1
 0 <= y12_90 <= 1
 0 <= y2_64 <= 1
 0 <= y8_51 <= 1
 0 <= y28_68 <= 1
 0 <= y6_92 <= 1
 0 <= y51_100 <= 1
 0 <= y21_99 <= 1
 0 <= y39_57 <= 1
 0 <= y4_11 <= 1
 0 <= y29_55 <= 1
 0 <= y24_87 <= 1
 0 <= y25_79 <= 1
 0 <= y18_22 <= 1
 0 <= y74_75 <= 1
 0 <= y3_77 <= 1
 0 <= y17_43 <= 1
 0 <= y18_48 <= 1
 0 <= y89_91 <= 1
 0 <= y43_56 <= 1
 0 <= y44_67 <= 1
 0 <= y1_25 <= 1
 0 <= y58_90 <= 1
 0 <= y18_93 <= 1
 0 <= y1_51 <= 1
 0 <= y35_90 <= 1
 0 <= y32_72 <= 1
 0 <= y11_70 <= 1
 0 <= y61_80 <= 1
 0 <= y6_18 <= 1
 0 <= y2_82 <= 1
 0 <= y15_84 <= 1
 0 <= y11_92 <= 1
 0 <= y29_42 <= 1
 0 <= y29_68 <= 1
 0 <= y18_43 <= 1
 0 <= y19_93 <= 1
 0 <= y20_85 <= 1
 0 <= y0_9 <= 1
 0 <= y1_52 <= 1
 0 <= y43_100 <= 1
 0 <= y12_71 <= 1
 0 <= y60_73 <= 1
 0 <= y15_93 <= 1
 0 <= y16_24 <= 1
 0 <= y6_47 <= 1
 0 <= y7_46 <= 1
 0 <= y40_75 <= 1
 0 <= y15_97 <= 1
 0 <= y28_79 <= 1
 0 <= y5_91 <= 1
 0 <= y51_97 <= 1
 0 <= y28_101 <= 1
 0 <= y46_80 <= 1
 0 <= y70_87 <= 1
 0 <= y25_34 <= 1
 0 <= y49_100 <= 1
 0 <= y0_92 <= 1
 0 <= y40_44 <= 1
 0 <= y1_80 <= 1
 0 <= y31_58 <= 1
 0 <= y38_88 <= 1
 0 <= y53_80 <= 1
 0 <= y7_61 <= 1
 0 <= y27_96 <= 1
 0 <= y17_74 <= 1
 0 <= y44_70 <= 1
 0 <= y46_91 <= 1
 0 <= y53_100 <= 1
 0 <= y22_75 <= 1
 0 <= y2_5 <= 1
 0 <= y34_101 <= 1
 0 <= y44_92 <= 1
 0 <= y25_43 <= 1
 0 <= y22_28 <= 1
 0 <= y75_77 <= 1
 0 <= y4_71 <= 1
 0 <= y12_56 <= 1
 0 <= y43_58 <= 1
 0 <= y12_22 <= 1
 0 <= y89_101 <= 1
 0 <= y60_86 <= 1
 0 <= y66_97 <= 1
 0 <= y14_78 <= 1
 0 <= y3_39 <= 1
 0 <= y37_94 <= 1
 0 <= y63_72 <= 1
 0 <= y29_40 <= 1
 0 <= y76_96 <= 1
 0 <= y33_45 <= 1
 0 <= y73_86 <= 1
 0 <= y28_84 <= 1
 0 <= y53_76 <= 1
 0 <= y15_26 <= 1
 0 <= y7_64 <= 1
 0 <= y56_79 <= 1
 0 <= y24_56 <= 1
 0 <= y20_44 <= 1
 0 <= y12_65 <= 1
 0 <= y70_82 <= 1
 0 <= y71_96 <= 1
 0 <= y87_93 <= 1
 0 <= y34_75 <= 1
 0 <= y30_62 <= 1
 0 <= y3_67 <= 1
 0 <= y76_83 <= 1
 0 <= y24_25 <= 1
 0 <= y6_89 <= 1
 0 <= y17_87 <= 1
 0 <= y67_93 <= 1
 0 <= y31_99 <= 1
 0 <= y44_73 <= 1
 0 <= y41_89 <= 1
 0 <= y24_63 <= 1
 0 <= y46_86 <= 1
 0 <= y21_64 <= 1
 0 <= y59_80 <= 1
 0 <= y7_11 <= 1
 0 <= y81_101 <= 1
 0 <= y52_86 <= 1
 0 <= y50_66 <= 1
 0 <= y48_94 <= 1
 0 <= y38_94 <= 1
 0 <= y40_52 <= 1
 0 <= y49_86 <= 1
 0 <= y7_63 <= 1
 0 <= y29_78 <= 1
 0 <= y66_80 <= 1
 0 <= y30_90 <= 1
 0 <= y58_95 <= 1
 0 <= y32_95 <= 1
 0 <= y2_61 <= 1
 0 <= y26_46 <= 1
 0 <= y21_29 <= 1
 0 <= y37_83 <= 1
 0 <= y63_77 <= 1
 0 <= y35_38 <= 1
 0 <= y6_49 <= 1
 0 <= y7_52 <= 1
 0 <= y50_87 <= 1
 0 <= y18_44 <= 1
 0 <= y14_30 <= 1
 0 <= y20_74 <= 1
 0 <= y76_95 <= 1
 0 <= y55_79 <= 1
 0 <= y44_85 <= 1
 0 <= y71_79 <= 1
 0 <= y45_79 <= 1
 0 <= y5_25 <= 1
 0 <= y1_41 <= 1
 0 <= y4_34 <= 1
 0 <= y34_78 <= 1
 0 <= y48_76 <= 1
 0 <= y55_57 <= 1
 0 <= y26_66 <= 1
 0 <= y18_39 <= 1
 0 <= y74_88 <= 1
 0 <= y48_49 <= 1
 0 <= y58_97 <= 1
 0 <= y24_58 <= 1
 0 <= y26_48 <= 1
 0 <= y24_32 <= 1
 0 <= y62_77 <= 1
 0 <= y34_73 <= 1
 0 <= y15_71 <= 1
 0 <= y50_73 <= 1
 0 <= y63_89 <= 1
 0 <= y35_58 <= 1
 0 <= y9_51 <= 1
 0 <= y65_89 <= 1
 0 <= y18_75 <= 1
 0 <= y19_50 <= 1
 0 <= y28_31 <= 1
 0 <= y25_38 <= 1
 0 <= y33_61 <= 1
 0 <= y31_76 <= 1
 0 <= y24_98 <= 1
 0 <= y38_54 <= 1
 0 <= y0_27 <= 1
 0 <= y53_96 <= 1
 0 <= y56_69 <= 1
 0 <= y89_96 <= 1
 0 <= y69_96 <= 1
 0 <= y66_98 <= 1
 0 <= y29_49 <= 1
 0 <= y27_33 <= 1
 0 <= y86_91 <= 1
 0 <= y15_85 <= 1
 0 <= y16_32 <= 1
 0 <= y29_69 <= 1
 0 <= y19_90 <= 1
 0 <= y6_99 <= 1
 0 <= y22_70 <= 1
 0 <= y43_79 <= 1
 0 <= y41_83 <= 1
 0 <= y23_94 <= 1
 0 <= y26_55 <= 1
 0 <= y53_61 <= 1
 0 <= y57_58 <= 1
 0 <= y34_76 <= 1
 0 <= y39_84 <= 1
 0 <= y4_74 <= 1
 0 <= y73_90 <= 1
 0 <= y16_61 <= 1
 0 <= y75_92 <= 1
 0 <= y49_88 <= 1
 0 <= y28_100 <= 1
 0 <= y47_67 <= 1
 0 <= y32_69 <= 1
 0 <= y24_34 <= 1
 0 <= y9_69 <= 1
 0 <= y1_32 <= 1
 0 <= y72_101 <= 1
 0 <= y2_39 <= 1
 0 <= y32_59 <= 1
 0 <= y12_91 <= 1
 0 <= y8_52 <= 1
 0 <= y48_91 <= 1
 0 <= y27_75 <= 1
 0 <= y64_87 <= 1
 0 <= y65_95 <= 1
 0 <= y77_87 <= 1
 0 <= y38_61 <= 1
 0 <= y64_77 <= 1
 0 <= y56_90 <= 1
 0 <= y83_98 <= 1
 0 <= y46_90 <= 1
 0 <= y16_89 <= 1
 0 <= y66_79 <= 1
 0 <= y85_88 <= 1
 0 <= y92_101 <= 1
 0 <= y3_25 <= 1
 0 <= y59_84 <= 1
 0 <= y10_68 <= 1
 0 <= y37_76 <= 1
 0 <= y80_99 <= 1
 0 <= y97_100 <= 1
 0 <= y61_86 <= 1
 0 <= y52_82 <= 1
 0 <= y8_59 <= 1
 0 <= y0_72 <= 1
 0 <= y7_29 <= 1
 0 <= y79_90 <= 1
 0 <= y7_59 <= 1
 0 <= y37_39 <= 1
 0 <= y40_94 <= 1
 0 <= y15_18 <= 1
 0 <= y11_18 <= 1
 0 <= y29_100 <= 1
 0 <= y14_61 <= 1
 0 <= y12_21 <= 1
 0 <= y1_24 <= 1
 0 <= y10_101 <= 1
 0 <= y16_80 <= 1
 0 <= y44_90 <= 1
 0 <= y3_30 <= 1
 0 <= y63_99 <= 1
 0 <= y6_53 <= 1
 0 <= y39_89 <= 1
 0 <= y1_69 <= 1
 0 <= y52_71 <= 1
 0 <= y0_101 <= 1
 0 <= y50_83 <= 1
 0 <= y18_40 <= 1
 0 <= y42_61 <= 1
 0 <= y16_56 <= 1
 0 <= y30_65 <= 1
 0 <= y64_91 <= 1
 0 <= y65_67 <= 1
 0 <= y0_20 <= 1
 0 <= y42_71 <= 1
 0 <= y55_75 <= 1
 0 <= y69_77 <= 1
 0 <= y7_95 <= 1
 0 <= y47_68 <= 1
 0 <= y71_75 <= 1
 0 <= y19_40 <= 1
 0 <= y13_98 <= 1
 0 <= y10_80 <= 1
 0 <= y36_78 <= 1
 0 <= y32_38 <= 1
 0 <= y22_41 <= 1
 0 <= y49_94 <= 1
 0 <= y55_64 <= 1
 0 <= y51_96 <= 1
 0 <= y46_81 <= 1
 0 <= y8_65 <= 1
 0 <= y14_91 <= 1
 0 <= y10_91 <= 1
 0 <= y21_43 <= 1
 0 <= y37_65 <= 1
 0 <= y38_71 <= 1
 0 <= y30_32 <= 1
 0 <= y51_93 <= 1
 0 <= y17_29 <= 1
 0 <= y27_99 <= 1
 0 <= y8_98 <= 1
 0 <= y19_80 <= 1
 0 <= y26_29 <= 1
 0 <= y41_67 <= 1
 0 <= y53_99 <= 1
 0 <= y32_94 <= 1
 0 <= y19_28 <= 1
 0 <= y50_98 <= 1
 0 <= y29_52 <= 1
 0 <= y27_44 <= 1
 0 <= y30_43 <= 1
 0 <= y38_80 <= 1
 0 <= y47_83 <= 1
 0 <= y43_74 <= 1
 0 <= y20_56 <= 1
 0 <= y21_61 <= 1
 0 <= y33_44 <= 1
 0 <= y16_36 <= 1
 0 <= y38_75 <= 1
 0 <= y39_91 <= 1
 0 <= y36_47 <= 1
 0 <= y18_38 <= 1
 0 <= y74_91 <= 1
 0 <= y16_58 <= 1
 0 <= y36_53 <= 1
 0 <= y19_94 <= 1
 0 <= y92_95 <= 1
 0 <= y58_96 <= 1
 0 <= y55_99 <= 1
 0 <= y25_52 <= 1
 0 <= y84_100 <= 1
 0 <= y75_100 <= 1
 0 <= y72_98 <= 1
 0 <= y2_40 <= 1
 0 <= y34_72 <= 1
 0 <= y3_53 <= 1
 0 <= y33_37 <= 1
 0 <= y40_78 <= 1
 0 <= y65_90 <= 1
 0 <= y21_101 <= 1
 0 <= y28_96 <= 1
 0 <= y11_24 <= 1
 0 <= y28_30 <= 1
 0 <= y35_77 <= 1
 0 <= y0_57 <= 1
 0 <= y14_89 <= 1
 0 <= y20_52 <= 1
 0 <= y9_73 <= 1
 0 <= y31_39 <= 1
 0 <= y63_71 <= 1
 0 <= y17_53 <= 1
 0 <= y41_48 <= 1
 0 <= y42_55 <= 1
 0 <= y11_17 <= 1
 0 <= y26_27 <= 1
 0 <= y18_69 <= 1
 0 <= y58_70 <= 1
 0 <= y28_51 <= 1
Binaries
 x0  x1  x2  x3  x4  x5  x6  x7  x8  x9  x10  x11  x12  x13  x14  x15  x16 
 x17  x18  x19  x20  x21  x22  x23  x24  x25  x26  x27  x28  x29  x30  x31 
 x32  x33  x34  x35  x36  x37  x38  x39  x40  x41  x42  x43  x44  x45  x46 
 x47  x48  x49  x50  x51  x52  x53  x54  x55  x56  x57  x58  x59  x60  x61 
 x62  x63  x64  x65  x66  x67  x68  x69  x70  x71  x72  x73  x74  x75  x76 
 x77  x78  x79  x80  x81  x82  x83  x84  x85  x86  x87  x88  x89  x90  x91 
 x92  x93  x94  x95  x96  x97  x98  x99  x100  x101  y24_92  y82_101  y32_44 
 y63_76  y35_41  y5_74  y43_63  y6_98  y12_17  y7_98  y80_94  y22_48  y20_32 
 y21_37  y7_22  y27_93  y38_73  y31_51  y63_83  y29_95  y13_51  y18_62  y6_101 
 y56_82  y0_14  y45_71  y0_36  y12_90  y2_64  y8_51  y28_68  y6_92  y51_100 
 y21_99  y39_57  y4_11  y29_55  y24_87  y25_79  y18_22  y74_75  y3_77  y17_43 
 y18_48  y89_91  y43_56  y44_67  y1_25  y58_90  y18_93  y1_51  y35_90  y32_72 
 y11_70  y61_80  y6_18  y2_82  y15_84  y11_92  y29_42  y29_68  y18_43  y19_93 
 y20_85  y0_9  y1_52  y43_100  y12_71  y60_73  y15_93  y16_24  y6_47  y7_46 
 y40_75  y15_97  y28_79  y5_91  y51_97  y28_101  y46_80  y70_87  y25_34 
 y49_100  y0_92  y40_44  y1_80  y31_58  y38_88  y53_80  y7_61  y27_96  y17_74 
 y44_70  y46_91  y53_100  y22_75  y2_5  y34_101  y44_92  y25_43  y22_28 
 y75_77  y4_71  y12_56  y43_58  y12_22  y89_101  y60_86  y66_97  y14_78  y3_39 
 y37_94  y63_72  y29_40  y76_96  y33_45  y73_86  y28_84  y53_76  y15_26  y7_64 
 y56_79  y24_56  y20_44  y12_65  y70_82  y71_96  y87_93  y34_75  y30_62  y3_67 
 y76_83  y24_25  y6_89  y17_87  y67_93  y31_99  y44_73  y41_89  y24_63  y46_86 
 y21_64  y59_80  y7_11  y81_101  y52_86  y50_66  y48_94  y38_94  y40_52 
 y49_86  y7_63  y29_78  y66_80  y30_90  y58_95  y32_95  y2_61  y26_46  y21_29 
 y37_83  y63_77  y35_38  y6_49  y7_52  y50_87  y18_44  y14_30  y20_74  y76_95 
 y55_79  y44_85  y71_79  y45_79  y5_25  y1_41  y4_34  y34_78  y48_76  y55_57 
 y26_66  y18_39  y74_88  y48_49  y58_97  y24_58  y26_48  y24_32  y62_77 
 y34_73  y15_71  y50_73  y63_89  y35_58  y9_51  y65_89  y18_75  y19_50  y28_31 
 y25_38  y33_61  y31_76  y24_98  y38_54  y0_27  y53_96  y56_69  y89_96  y69_96 
 y66_98  y29_49  y27_33  y86_91  y15_85  y16_32  y29_69  y19_90  y6_99  y22_70 
 y43_79  y41_83  y23_94  y26_55  y53_61  y57_58  y34_76  y39_84  y4_74  y73_90 
 y16_61  y75_92  y49_88  y28_100  y47_67  y32_69  y24_34  y9_69  y1_32 
 y72_101  y2_39  y32_59  y12_91  y8_52  y48_91  y27_75  y64_87  y65_95  y77_87 
 y38_61  y64_77  y56_90  y83_98  y46_90  y16_89  y66_79  y85_88  y92_101 
 y3_25  y59_84  y10_68  y37_76  y80_99  y97_100  y61_86  y52_82  y8_59  y0_72 
 y7_29  y79_90  y7_59  y37_39  y40_94  y15_18  y11_18  y29_100  y14_61  y12_21 
 y1_24  y10_101  y16_80  y44_90  y3_30  y63_99  y6_53  y39_89  y1_69  y52_71 
 y0_101  y50_83  y18_40  y42_61  y16_56  y30_65  y64_91  y65_67  y0_20  y42_71 
 y55_75  y69_77  y7_95  y47_68  y71_75  y19_40  y13_98  y10_80  y36_78  y32_38 
 y22_41  y49_94  y55_64  y51_96  y46_81  y8_65  y14_91  y10_91  y21_43  y37_65 
 y38_71  y30_32  y51_93  y17_29  y27_99  y8_98  y19_80  y26_29  y41_67  y53_99 
 y32_94  y19_28  y50_98  y29_52  y27_44  y30_43  y38_80  y47_83  y43_74 
 y20_56  y21_61  y33_44  y16_36  y38_75  y39_91  y36_47  y18_38  y74_91 
 y16_58  y36_53  y19_94  y92_95  y58_96  y55_99  y25_52  y84_100  y75_100 
 y72_98  y2_40  y34_72  y3_53  y33_37  y40_78  y65_90  y21_101  y28_96  y11_24 
 y28_30  y35_77  y0_57  y14_89  y20_52  y9_73  y31_39  y63_71  y17_53  y41_48 
 y42_55  y11_17  y26_27  y18_69  y58_70  y28_51 
End
